examples/dynamic/debug4/standard_copy7_ground.i_3_2_2.bpl_3.smt2
(set-info :smt-lib-version 2.6)
(set-logic QF_NRA)
(set-info :source |
Generated by a component of the Ultimate program analysis framework [1] 
that implements a constraint-based synthesis of invariants [2].

This SMT script belongs to a set of SMT scripts that was generated by 
applying Ultimate to benchmarks [3] from the SV-COMP 2017 [4,5].

This script might _not_ contain all SMT commands that are used by 
Ultimate . In order to satisfy the restrictions of
the SMT-COMP we have to drop e.g., the commands for getting
values (resp. models), unsatisfiable cores and interpolants.

2017-05-01, Matthias Heizmann (heizmann@informatik.uni-freiburg.de)


[1] https://ultimate.informatik.uni-freiburg.de/
[2] Michael Colon, Sriram Sankaranarayanan, Henny Sipma: Linear Invariant 
Generation Using Non-linear Constraint Solving. CAV 2003: 420-432
[3] https://github.com/sosy-lab/sv-benchmarks
[4] Dirk Beyer: Software Verification with Validation of Results - 
(Report on SV-COMP 2017). TACAS (2) 2017: 331-349
[5] https://sv-comp.sosy-lab.org/2017/
|)
(set-info :license "https://creativecommons.org/licenses/by/4.0/")
(set-info :category "industrial")
(set-info :status unknown)
(declare-fun lp_0_0c () Real)
(declare-fun lp_0_0_ULTIMATE.start_main_~i~4 () Real)
(declare-fun lp_0_1c () Real)
(declare-fun lp_0_1_ULTIMATE.start_main_~i~4 () Real)
(declare-fun lp_1_2c () Real)
(declare-fun lp_1_2_ULTIMATE.start_main_~i~4 () Real)
(declare-fun lp_1_3c () Real)
(declare-fun lp_1_3_ULTIMATE.start_main_~i~4 () Real)
(declare-fun lp_2_4c () Real)
(declare-fun lp_2_4_ULTIMATE.start_main_~i~4 () Real)
(declare-fun lp_2_5c () Real)
(declare-fun lp_2_5_ULTIMATE.start_main_~i~4 () Real)
(declare-fun lp_3_6c () Real)
(declare-fun lp_3_6_ULTIMATE.start_main_~i~4 () Real)
(declare-fun lp_3_7c () Real)
(declare-fun lp_3_7_ULTIMATE.start_main_~i~4 () Real)
(declare-fun lp_4_8c () Real)
(declare-fun lp_4_8_ULTIMATE.start_main_~i~4 () Real)
(declare-fun lp_4_9c () Real)
(declare-fun lp_4_9_ULTIMATE.start_main_~i~4 () Real)
(declare-fun lp_5_10c () Real)
(declare-fun lp_5_10_ULTIMATE.start_main_~i~4 () Real)
(declare-fun lp_5_11c () Real)
(declare-fun lp_5_11_ULTIMATE.start_main_~i~4 () Real)
(declare-fun lp_6_12c () Real)
(declare-fun lp_6_12_ULTIMATE.start_main_~i~4 () Real)
(declare-fun lp_6_13c () Real)
(declare-fun lp_6_13_ULTIMATE.start_main_~i~4 () Real)
(declare-fun motzkin_1500_0 () Real)
(declare-fun motzkin_1500_1 () Real)
(declare-fun motzkin_1500_2 () Real)
(declare-fun motzkin_1501_0 () Real)
(declare-fun motzkin_1501_1 () Real)
(declare-fun motzkin_1501_2 () Real)
(assert (and (>= motzkin_1500_0 0.0) (>= motzkin_1500_1 0.0) (>= motzkin_1500_2 0.0) (= (+ motzkin_1500_0 (* motzkin_1500_1 (- 1.0)) (* motzkin_1500_2 (+ (* (- 1.0) lp_0_0_ULTIMATE.start_main_~i~4) 0.0))) 0.0) (<= (* motzkin_1500_2 (+ (* (- 1.0) lp_0_0c) 0.0)) 0.0) (or (< 0.0 0.0) (> motzkin_1500_2 0.0)) (>= motzkin_1501_0 0.0) (>= motzkin_1501_1 0.0) (>= motzkin_1501_2 0.0) (= (+ motzkin_1501_0 (* motzkin_1501_1 (- 1.0)) (* motzkin_1501_2 (+ (* (- 1.0) lp_0_1_ULTIMATE.start_main_~i~4) 0.0))) 0.0) (<= (* motzkin_1501_2 (+ (* (- 1.0) lp_0_1c) 0.0)) 0.0) (or (< 0.0 0.0) (> motzkin_1501_2 0.0))))
(declare-fun motzkin_1502_0 () Real)
(declare-fun motzkin_1502_1 () Real)
(declare-fun motzkin_1502_2 () Real)
(declare-fun motzkin_1502_3 () Real)
(declare-fun motzkin_1502_4 () Real)
(declare-fun motzkin_1502_5 () Real)
(declare-fun motzkin_1503_0 () Real)
(declare-fun motzkin_1503_1 () Real)
(declare-fun motzkin_1503_2 () Real)
(declare-fun motzkin_1503_3 () Real)
(declare-fun motzkin_1503_4 () Real)
(declare-fun motzkin_1503_5 () Real)
(assert (and (>= motzkin_1502_0 0.0) (>= motzkin_1502_1 0.0) (>= motzkin_1502_2 0.0) (>= motzkin_1502_3 0.0) (>= motzkin_1502_4 0.0) (>= motzkin_1502_5 0.0) (= (+ (* motzkin_1502_0 (- 1.0)) motzkin_1502_1 (* motzkin_1502_3 (+ (* (- 1.0) lp_1_2_ULTIMATE.start_main_~i~4) 0.0))) 0.0) (= (+ motzkin_1502_2 (* motzkin_1502_4 (+ (* 1.0 lp_0_0_ULTIMATE.start_main_~i~4) 0.0)) (* motzkin_1502_5 (+ (* 1.0 lp_0_1_ULTIMATE.start_main_~i~4) 0.0))) 0.0) (<= (+ (* motzkin_1502_2 (- 100000.0)) (* motzkin_1502_3 (+ (* (- 1.0) lp_1_2c) 0.0)) (* motzkin_1502_4 (+ (* 1.0 lp_0_0c) 0.0)) (* motzkin_1502_5 (+ (* 1.0 lp_0_1c) 0.0))) 0.0) (or (< (+ (* motzkin_1502_2 (- 100000.0)) (* motzkin_1502_4 (+ (* 1.0 lp_0_0c) 0.0)) (* motzkin_1502_5 (+ (* 1.0 lp_0_1c) 0.0))) 0.0) (> motzkin_1502_3 0.0)) (>= motzkin_1503_0 0.0) (>= motzkin_1503_1 0.0) (>= motzkin_1503_2 0.0) (>= motzkin_1503_3 0.0) (>= motzkin_1503_4 0.0) (>= motzkin_1503_5 0.0) (= (+ (* motzkin_1503_0 (- 1.0)) motzkin_1503_1 (* motzkin_1503_3 (+ (* (- 1.0) lp_1_3_ULTIMATE.start_main_~i~4) 0.0))) 0.0) (= (+ motzkin_1503_2 (* motzkin_1503_4 (+ (* 1.0 lp_0_0_ULTIMATE.start_main_~i~4) 0.0)) (* motzkin_1503_5 (+ (* 1.0 lp_0_1_ULTIMATE.start_main_~i~4) 0.0))) 0.0) (<= (+ (* motzkin_1503_2 (- 100000.0)) (* motzkin_1503_3 (+ (* (- 1.0) lp_1_3c) 0.0)) (* motzkin_1503_4 (+ (* 1.0 lp_0_0c) 0.0)) (* motzkin_1503_5 (+ (* 1.0 lp_0_1c) 0.0))) 0.0) (or (< (+ (* motzkin_1503_2 (- 100000.0)) (* motzkin_1503_4 (+ (* 1.0 lp_0_0c) 0.0)) (* motzkin_1503_5 (+ (* 1.0 lp_0_1c) 0.0))) 0.0) (> motzkin_1503_3 0.0))))
(declare-fun motzkin_1504_0 () Real)
(declare-fun motzkin_1504_1 () Real)
(declare-fun motzkin_1504_2 () Real)
(declare-fun motzkin_1504_3 () Real)
(declare-fun motzkin_1504_4 () Real)
(declare-fun motzkin_1504_5 () Real)
(declare-fun motzkin_1505_0 () Real)
(declare-fun motzkin_1505_1 () Real)
(declare-fun motzkin_1505_2 () Real)
(declare-fun motzkin_1505_3 () Real)
(declare-fun motzkin_1505_4 () Real)
(declare-fun motzkin_1505_5 () Real)
(assert (and (>= motzkin_1504_0 0.0) (>= motzkin_1504_1 0.0) (>= motzkin_1504_2 0.0) (>= motzkin_1504_3 0.0) (>= motzkin_1504_4 0.0) (>= motzkin_1504_5 0.0) (= (+ (* motzkin_1504_0 (- 1.0)) (* motzkin_1504_1 (- 1.0)) motzkin_1504_2 (* motzkin_1504_4 (+ (* 1.0 lp_0_0_ULTIMATE.start_main_~i~4) 0.0)) (* motzkin_1504_5 (+ (* 1.0 lp_0_1_ULTIMATE.start_main_~i~4) 0.0))) 0.0) (= (+ motzkin_1504_1 (* motzkin_1504_2 (- 1.0)) (* motzkin_1504_3 (+ (* (- 1.0) lp_0_0_ULTIMATE.start_main_~i~4) 0.0))) 0.0) (<= (+ (* motzkin_1504_0 99999.0) (* motzkin_1504_1 (- 1.0)) motzkin_1504_2 (* motzkin_1504_3 (+ (* (- 1.0) lp_0_0c) 0.0)) (* motzkin_1504_4 (+ (* 1.0 lp_0_0c) 0.0)) (* motzkin_1504_5 (+ (* 1.0 lp_0_1c) 0.0))) 0.0) (or (< (+ (* motzkin_1504_0 99999.0) (* motzkin_1504_1 (- 1.0)) motzkin_1504_2 (* motzkin_1504_4 (+ (* 1.0 lp_0_0c) 0.0)) (* motzkin_1504_5 (+ (* 1.0 lp_0_1c) 0.0))) 0.0) (> motzkin_1504_3 0.0)) (>= motzkin_1505_0 0.0) (>= motzkin_1505_1 0.0) (>= motzkin_1505_2 0.0) (>= motzkin_1505_3 0.0) (>= motzkin_1505_4 0.0) (>= motzkin_1505_5 0.0) (= (+ (* motzkin_1505_0 (- 1.0)) (* motzkin_1505_1 (- 1.0)) motzkin_1505_2 (* motzkin_1505_4 (+ (* 1.0 lp_0_0_ULTIMATE.start_main_~i~4) 0.0)) (* motzkin_1505_5 (+ (* 1.0 lp_0_1_ULTIMATE.start_main_~i~4) 0.0))) 0.0) (= (+ motzkin_1505_1 (* motzkin_1505_2 (- 1.0)) (* motzkin_1505_3 (+ (* (- 1.0) lp_0_1_ULTIMATE.start_main_~i~4) 0.0))) 0.0) (<= (+ (* motzkin_1505_0 99999.0) (* motzkin_1505_1 (- 1.0)) motzkin_1505_2 (* motzkin_1505_3 (+ (* (- 1.0) lp_0_1c) 0.0)) (* motzkin_1505_4 (+ (* 1.0 lp_0_0c) 0.0)) (* motzkin_1505_5 (+ (* 1.0 lp_0_1c) 0.0))) 0.0) (or (< (+ (* motzkin_1505_0 99999.0) (* motzkin_1505_1 (- 1.0)) motzkin_1505_2 (* motzkin_1505_4 (+ (* 1.0 lp_0_0c) 0.0)) (* motzkin_1505_5 (+ (* 1.0 lp_0_1c) 0.0))) 0.0) (> motzkin_1505_3 0.0))))
(declare-fun motzkin_1506_0 () Real)
(declare-fun motzkin_1506_1 () Real)
(declare-fun motzkin_1506_2 () Real)
(declare-fun motzkin_1506_3 () Real)
(declare-fun motzkin_1506_4 () Real)
(declare-fun motzkin_1506_5 () Real)
(declare-fun motzkin_1507_0 () Real)
(declare-fun motzkin_1507_1 () Real)
(declare-fun motzkin_1507_2 () Real)
(declare-fun motzkin_1507_3 () Real)
(declare-fun motzkin_1507_4 () Real)
(declare-fun motzkin_1507_5 () Real)
(assert (and (>= motzkin_1506_0 0.0) (>= motzkin_1506_1 0.0) (>= motzkin_1506_2 0.0) (>= motzkin_1506_3 0.0) (>= motzkin_1506_4 0.0) (>= motzkin_1506_5 0.0) (= (+ motzkin_1506_0 (* motzkin_1506_1 (- 1.0)) (* motzkin_1506_3 (+ (* (- 1.0) lp_2_4_ULTIMATE.start_main_~i~4) 0.0))) 0.0) (= (+ motzkin_1506_2 (* motzkin_1506_4 (+ (* 1.0 lp_1_2_ULTIMATE.start_main_~i~4) 0.0)) (* motzkin_1506_5 (+ (* 1.0 lp_1_3_ULTIMATE.start_main_~i~4) 0.0))) 0.0) (<= (+ (* motzkin_1506_2 (- 100000.0)) (* motzkin_1506_3 (+ (* (- 1.0) lp_2_4c) 0.0)) (* motzkin_1506_4 (+ (* 1.0 lp_1_2c) 0.0)) (* motzkin_1506_5 (+ (* 1.0 lp_1_3c) 0.0))) 0.0) (or (< (+ (* motzkin_1506_2 (- 100000.0)) (* motzkin_1506_4 (+ (* 1.0 lp_1_2c) 0.0)) (* motzkin_1506_5 (+ (* 1.0 lp_1_3c) 0.0))) 0.0) (> motzkin_1506_3 0.0)) (>= motzkin_1507_0 0.0) (>= motzkin_1507_1 0.0) (>= motzkin_1507_2 0.0) (>= motzkin_1507_3 0.0) (>= motzkin_1507_4 0.0) (>= motzkin_1507_5 0.0) (= (+ motzkin_1507_0 (* motzkin_1507_1 (- 1.0)) (* motzkin_1507_3 (+ (* (- 1.0) lp_2_5_ULTIMATE.start_main_~i~4) 0.0))) 0.0) (= (+ motzkin_1507_2 (* motzkin_1507_4 (+ (* 1.0 lp_1_2_ULTIMATE.start_main_~i~4) 0.0)) (* motzkin_1507_5 (+ (* 1.0 lp_1_3_ULTIMATE.start_main_~i~4) 0.0))) 0.0) (<= (+ (* motzkin_1507_2 (- 100000.0)) (* motzkin_1507_3 (+ (* (- 1.0) lp_2_5c) 0.0)) (* motzkin_1507_4 (+ (* 1.0 lp_1_2c) 0.0)) (* motzkin_1507_5 (+ (* 1.0 lp_1_3c) 0.0))) 0.0) (or (< (+ (* motzkin_1507_2 (- 100000.0)) (* motzkin_1507_4 (+ (* 1.0 lp_1_2c) 0.0)) (* motzkin_1507_5 (+ (* 1.0 lp_1_3c) 0.0))) 0.0) (> motzkin_1507_3 0.0))))
(declare-fun motzkin_1508_0 () Real)
(declare-fun motzkin_1508_1 () Real)
(declare-fun motzkin_1508_2 () Real)
(declare-fun motzkin_1508_3 () Real)
(declare-fun motzkin_1508_4 () Real)
(declare-fun motzkin_1508_5 () Real)
(declare-fun motzkin_1509_0 () Real)
(declare-fun motzkin_1509_1 () Real)
(declare-fun motzkin_1509_2 () Real)
(declare-fun motzkin_1509_3 () Real)
(declare-fun motzkin_1509_4 () Real)
(declare-fun motzkin_1509_5 () Real)
(assert (and (>= motzkin_1508_0 0.0) (>= motzkin_1508_1 0.0) (>= motzkin_1508_2 0.0) (>= motzkin_1508_3 0.0) (>= motzkin_1508_4 0.0) (>= motzkin_1508_5 0.0) (= (+ (* motzkin_1508_0 (- 1.0)) motzkin_1508_1 (* motzkin_1508_2 (- 1.0)) (* motzkin_1508_4 (+ (* 1.0 lp_1_2_ULTIMATE.start_main_~i~4) 0.0)) (* motzkin_1508_5 (+ (* 1.0 lp_1_3_ULTIMATE.start_main_~i~4) 0.0))) 0.0) (= (+ (* motzkin_1508_1 (- 1.0)) motzkin_1508_2 (* motzkin_1508_3 (+ (* (- 1.0) lp_1_2_ULTIMATE.start_main_~i~4) 0.0))) 0.0) (<= (+ (* motzkin_1508_0 99999.0) motzkin_1508_1 (* motzkin_1508_2 (- 1.0)) (* motzkin_1508_3 (+ (* (- 1.0) lp_1_2c) 0.0)) (* motzkin_1508_4 (+ (* 1.0 lp_1_2c) 0.0)) (* motzkin_1508_5 (+ (* 1.0 lp_1_3c) 0.0))) 0.0) (or (< (+ (* motzkin_1508_0 99999.0) motzkin_1508_1 (* motzkin_1508_2 (- 1.0)) (* motzkin_1508_4 (+ (* 1.0 lp_1_2c) 0.0)) (* motzkin_1508_5 (+ (* 1.0 lp_1_3c) 0.0))) 0.0) (> motzkin_1508_3 0.0)) (>= motzkin_1509_0 0.0) (>= motzkin_1509_1 0.0) (>= motzkin_1509_2 0.0) (>= motzkin_1509_3 0.0) (>= motzkin_1509_4 0.0) (>= motzkin_1509_5 0.0) (= (+ (* motzkin_1509_0 (- 1.0)) motzkin_1509_1 (* motzkin_1509_2 (- 1.0)) (* motzkin_1509_4 (+ (* 1.0 lp_1_2_ULTIMATE.start_main_~i~4) 0.0)) (* motzkin_1509_5 (+ (* 1.0 lp_1_3_ULTIMATE.start_main_~i~4) 0.0))) 0.0) (= (+ (* motzkin_1509_1 (- 1.0)) motzkin_1509_2 (* motzkin_1509_3 (+ (* (- 1.0) lp_1_3_ULTIMATE.start_main_~i~4) 0.0))) 0.0) (<= (+ (* motzkin_1509_0 99999.0) motzkin_1509_1 (* motzkin_1509_2 (- 1.0)) (* motzkin_1509_3 (+ (* (- 1.0) lp_1_3c) 0.0)) (* motzkin_1509_4 (+ (* 1.0 lp_1_2c) 0.0)) (* motzkin_1509_5 (+ (* 1.0 lp_1_3c) 0.0))) 0.0) (or (< (+ (* motzkin_1509_0 99999.0) motzkin_1509_1 (* motzkin_1509_2 (- 1.0)) (* motzkin_1509_4 (+ (* 1.0 lp_1_2c) 0.0)) (* motzkin_1509_5 (+ (* 1.0 lp_1_3c) 0.0))) 0.0) (> motzkin_1509_3 0.0))))
(declare-fun motzkin_1510_0 () Real)
(declare-fun motzkin_1510_1 () Real)
(declare-fun motzkin_1510_2 () Real)
(declare-fun motzkin_1510_3 () Real)
(declare-fun motzkin_1510_4 () Real)
(declare-fun motzkin_1510_5 () Real)
(declare-fun motzkin_1511_0 () Real)
(declare-fun motzkin_1511_1 () Real)
(declare-fun motzkin_1511_2 () Real)
(declare-fun motzkin_1511_3 () Real)
(declare-fun motzkin_1511_4 () Real)
(declare-fun motzkin_1511_5 () Real)
(assert (and (>= motzkin_1510_0 0.0) (>= motzkin_1510_1 0.0) (>= motzkin_1510_2 0.0) (>= motzkin_1510_3 0.0) (>= motzkin_1510_4 0.0) (>= motzkin_1510_5 0.0) (= (+ (* motzkin_1510_0 (- 1.0)) motzkin_1510_2 (* motzkin_1510_3 (+ (* (- 1.0) lp_2_4_ULTIMATE.start_main_~i~4) 0.0))) 0.0) (= (+ motzkin_1510_0 (* motzkin_1510_1 (- 1.0)) (* motzkin_1510_2 (- 1.0)) (* motzkin_1510_4 (+ (* 1.0 lp_2_4_ULTIMATE.start_main_~i~4) 0.0)) (* motzkin_1510_5 (+ (* 1.0 lp_2_5_ULTIMATE.start_main_~i~4) 0.0))) 0.0) (<= (+ motzkin_1510_0 (* motzkin_1510_1 99999.0) (* motzkin_1510_2 (- 1.0)) (* motzkin_1510_3 (+ (* (- 1.0) lp_2_4c) 0.0)) (* motzkin_1510_4 (+ (* 1.0 lp_2_4c) 0.0)) (* motzkin_1510_5 (+ (* 1.0 lp_2_5c) 0.0))) 0.0) (or (< (+ motzkin_1510_0 (* motzkin_1510_1 99999.0) (* motzkin_1510_2 (- 1.0)) (* motzkin_1510_4 (+ (* 1.0 lp_2_4c) 0.0)) (* motzkin_1510_5 (+ (* 1.0 lp_2_5c) 0.0))) 0.0) (> motzkin_1510_3 0.0)) (>= motzkin_1511_0 0.0) (>= motzkin_1511_1 0.0) (>= motzkin_1511_2 0.0) (>= motzkin_1511_3 0.0) (>= motzkin_1511_4 0.0) (>= motzkin_1511_5 0.0) (= (+ (* motzkin_1511_0 (- 1.0)) motzkin_1511_2 (* motzkin_1511_3 (+ (* (- 1.0) lp_2_5_ULTIMATE.start_main_~i~4) 0.0))) 0.0) (= (+ motzkin_1511_0 (* motzkin_1511_1 (- 1.0)) (* motzkin_1511_2 (- 1.0)) (* motzkin_1511_4 (+ (* 1.0 lp_2_4_ULTIMATE.start_main_~i~4) 0.0)) (* motzkin_1511_5 (+ (* 1.0 lp_2_5_ULTIMATE.start_main_~i~4) 0.0))) 0.0) (<= (+ motzkin_1511_0 (* motzkin_1511_1 99999.0) (* motzkin_1511_2 (- 1.0)) (* motzkin_1511_3 (+ (* (- 1.0) lp_2_5c) 0.0)) (* motzkin_1511_4 (+ (* 1.0 lp_2_4c) 0.0)) (* motzkin_1511_5 (+ (* 1.0 lp_2_5c) 0.0))) 0.0) (or (< (+ motzkin_1511_0 (* motzkin_1511_1 99999.0) (* motzkin_1511_2 (- 1.0)) (* motzkin_1511_4 (+ (* 1.0 lp_2_4c) 0.0)) (* motzkin_1511_5 (+ (* 1.0 lp_2_5c) 0.0))) 0.0) (> motzkin_1511_3 0.0))))
(declare-fun motzkin_1512_0 () Real)
(declare-fun motzkin_1512_1 () Real)
(declare-fun motzkin_1512_2 () Real)
(declare-fun motzkin_1512_3 () Real)
(declare-fun motzkin_1512_4 () Real)
(declare-fun motzkin_1512_5 () Real)
(declare-fun motzkin_1513_0 () Real)
(declare-fun motzkin_1513_1 () Real)
(declare-fun motzkin_1513_2 () Real)
(declare-fun motzkin_1513_3 () Real)
(declare-fun motzkin_1513_4 () Real)
(declare-fun motzkin_1513_5 () Real)
(assert (and (>= motzkin_1512_0 0.0) (>= motzkin_1512_1 0.0) (>= motzkin_1512_2 0.0) (>= motzkin_1512_3 0.0) (>= motzkin_1512_4 0.0) (>= motzkin_1512_5 0.0) (= (+ (* motzkin_1512_0 (- 1.0)) motzkin_1512_2 (* motzkin_1512_3 (+ (* (- 1.0) lp_3_6_ULTIMATE.start_main_~i~4) 0.0))) 0.0) (= (+ motzkin_1512_1 (* motzkin_1512_4 (+ (* 1.0 lp_2_4_ULTIMATE.start_main_~i~4) 0.0)) (* motzkin_1512_5 (+ (* 1.0 lp_2_5_ULTIMATE.start_main_~i~4) 0.0))) 0.0) (<= (+ (* motzkin_1512_1 (- 100000.0)) (* motzkin_1512_3 (+ (* (- 1.0) lp_3_6c) 0.0)) (* motzkin_1512_4 (+ (* 1.0 lp_2_4c) 0.0)) (* motzkin_1512_5 (+ (* 1.0 lp_2_5c) 0.0))) 0.0) (or (< (+ (* motzkin_1512_1 (- 100000.0)) (* motzkin_1512_4 (+ (* 1.0 lp_2_4c) 0.0)) (* motzkin_1512_5 (+ (* 1.0 lp_2_5c) 0.0))) 0.0) (> motzkin_1512_3 0.0)) (>= motzkin_1513_0 0.0) (>= motzkin_1513_1 0.0) (>= motzkin_1513_2 0.0) (>= motzkin_1513_3 0.0) (>= motzkin_1513_4 0.0) (>= motzkin_1513_5 0.0) (= (+ (* motzkin_1513_0 (- 1.0)) motzkin_1513_2 (* motzkin_1513_3 (+ (* (- 1.0) lp_3_7_ULTIMATE.start_main_~i~4) 0.0))) 0.0) (= (+ motzkin_1513_1 (* motzkin_1513_4 (+ (* 1.0 lp_2_4_ULTIMATE.start_main_~i~4) 0.0)) (* motzkin_1513_5 (+ (* 1.0 lp_2_5_ULTIMATE.start_main_~i~4) 0.0))) 0.0) (<= (+ (* motzkin_1513_1 (- 100000.0)) (* motzkin_1513_3 (+ (* (- 1.0) lp_3_7c) 0.0)) (* motzkin_1513_4 (+ (* 1.0 lp_2_4c) 0.0)) (* motzkin_1513_5 (+ (* 1.0 lp_2_5c) 0.0))) 0.0) (or (< (+ (* motzkin_1513_1 (- 100000.0)) (* motzkin_1513_4 (+ (* 1.0 lp_2_4c) 0.0)) (* motzkin_1513_5 (+ (* 1.0 lp_2_5c) 0.0))) 0.0) (> motzkin_1513_3 0.0))))
(declare-fun motzkin_1514_0 () Real)
(declare-fun motzkin_1514_1 () Real)
(declare-fun motzkin_1514_2 () Real)
(declare-fun motzkin_1514_3 () Real)
(declare-fun motzkin_1514_4 () Real)
(declare-fun motzkin_1514_5 () Real)
(declare-fun motzkin_1515_0 () Real)
(declare-fun motzkin_1515_1 () Real)
(declare-fun motzkin_1515_2 () Real)
(declare-fun motzkin_1515_3 () Real)
(declare-fun motzkin_1515_4 () Real)
(declare-fun motzkin_1515_5 () Real)
(assert (and (>= motzkin_1514_0 0.0) (>= motzkin_1514_1 0.0) (>= motzkin_1514_2 0.0) (>= motzkin_1514_3 0.0) (>= motzkin_1514_4 0.0) (>= motzkin_1514_5 0.0) (= (+ motzkin_1514_0 (* motzkin_1514_2 (- 1.0)) (* motzkin_1514_3 (+ (* (- 1.0) lp_3_6_ULTIMATE.start_main_~i~4) 0.0))) 0.0) (= (+ (* motzkin_1514_0 (- 1.0)) (* motzkin_1514_1 (- 1.0)) motzkin_1514_2 (* motzkin_1514_4 (+ (* 1.0 lp_3_6_ULTIMATE.start_main_~i~4) 0.0)) (* motzkin_1514_5 (+ (* 1.0 lp_3_7_ULTIMATE.start_main_~i~4) 0.0))) 0.0) (<= (+ (* motzkin_1514_0 (- 1.0)) (* motzkin_1514_1 99999.0) motzkin_1514_2 (* motzkin_1514_3 (+ (* (- 1.0) lp_3_6c) 0.0)) (* motzkin_1514_4 (+ (* 1.0 lp_3_6c) 0.0)) (* motzkin_1514_5 (+ (* 1.0 lp_3_7c) 0.0))) 0.0) (or (< (+ (* motzkin_1514_0 (- 1.0)) (* motzkin_1514_1 99999.0) motzkin_1514_2 (* motzkin_1514_4 (+ (* 1.0 lp_3_6c) 0.0)) (* motzkin_1514_5 (+ (* 1.0 lp_3_7c) 0.0))) 0.0) (> motzkin_1514_3 0.0)) (>= motzkin_1515_0 0.0) (>= motzkin_1515_1 0.0) (>= motzkin_1515_2 0.0) (>= motzkin_1515_3 0.0) (>= motzkin_1515_4 0.0) (>= motzkin_1515_5 0.0) (= (+ motzkin_1515_0 (* motzkin_1515_2 (- 1.0)) (* motzkin_1515_3 (+ (* (- 1.0) lp_3_7_ULTIMATE.start_main_~i~4) 0.0))) 0.0) (= (+ (* motzkin_1515_0 (- 1.0)) (* motzkin_1515_1 (- 1.0)) motzkin_1515_2 (* motzkin_1515_4 (+ (* 1.0 lp_3_6_ULTIMATE.start_main_~i~4) 0.0)) (* motzkin_1515_5 (+ (* 1.0 lp_3_7_ULTIMATE.start_main_~i~4) 0.0))) 0.0) (<= (+ (* motzkin_1515_0 (- 1.0)) (* motzkin_1515_1 99999.0) motzkin_1515_2 (* motzkin_1515_3 (+ (* (- 1.0) lp_3_7c) 0.0)) (* motzkin_1515_4 (+ (* 1.0 lp_3_6c) 0.0)) (* motzkin_1515_5 (+ (* 1.0 lp_3_7c) 0.0))) 0.0) (or (< (+ (* motzkin_1515_0 (- 1.0)) (* motzkin_1515_1 99999.0) motzkin_1515_2 (* motzkin_1515_4 (+ (* 1.0 lp_3_6c) 0.0)) (* motzkin_1515_5 (+ (* 1.0 lp_3_7c) 0.0))) 0.0) (> motzkin_1515_3 0.0))))
(declare-fun motzkin_1516_0 () Real)
(declare-fun motzkin_1516_1 () Real)
(declare-fun motzkin_1516_2 () Real)
(declare-fun motzkin_1516_3 () Real)
(declare-fun motzkin_1516_4 () Real)
(declare-fun motzkin_1516_5 () Real)
(declare-fun motzkin_1517_0 () Real)
(declare-fun motzkin_1517_1 () Real)
(declare-fun motzkin_1517_2 () Real)
(declare-fun motzkin_1517_3 () Real)
(declare-fun motzkin_1517_4 () Real)
(declare-fun motzkin_1517_5 () Real)
(assert (and (>= motzkin_1516_0 0.0) (>= motzkin_1516_1 0.0) (>= motzkin_1516_2 0.0) (>= motzkin_1516_3 0.0) (>= motzkin_1516_4 0.0) (>= motzkin_1516_5 0.0) (= (+ motzkin_1516_0 (* motzkin_1516_2 (- 1.0)) (* motzkin_1516_3 (+ (* (- 1.0) lp_4_8_ULTIMATE.start_main_~i~4) 0.0))) 0.0) (= (+ motzkin_1516_1 (* motzkin_1516_4 (+ (* 1.0 lp_3_6_ULTIMATE.start_main_~i~4) 0.0)) (* motzkin_1516_5 (+ (* 1.0 lp_3_7_ULTIMATE.start_main_~i~4) 0.0))) 0.0) (<= (+ (* motzkin_1516_1 (- 100000.0)) (* motzkin_1516_3 (+ (* (- 1.0) lp_4_8c) 0.0)) (* motzkin_1516_4 (+ (* 1.0 lp_3_6c) 0.0)) (* motzkin_1516_5 (+ (* 1.0 lp_3_7c) 0.0))) 0.0) (or (< (+ (* motzkin_1516_1 (- 100000.0)) (* motzkin_1516_4 (+ (* 1.0 lp_3_6c) 0.0)) (* motzkin_1516_5 (+ (* 1.0 lp_3_7c) 0.0))) 0.0) (> motzkin_1516_3 0.0)) (>= motzkin_1517_0 0.0) (>= motzkin_1517_1 0.0) (>= motzkin_1517_2 0.0) (>= motzkin_1517_3 0.0) (>= motzkin_1517_4 0.0) (>= motzkin_1517_5 0.0) (= (+ motzkin_1517_0 (* motzkin_1517_2 (- 1.0)) (* motzkin_1517_3 (+ (* (- 1.0) lp_4_9_ULTIMATE.start_main_~i~4) 0.0))) 0.0) (= (+ motzkin_1517_1 (* motzkin_1517_4 (+ (* 1.0 lp_3_6_ULTIMATE.start_main_~i~4) 0.0)) (* motzkin_1517_5 (+ (* 1.0 lp_3_7_ULTIMATE.start_main_~i~4) 0.0))) 0.0) (<= (+ (* motzkin_1517_1 (- 100000.0)) (* motzkin_1517_3 (+ (* (- 1.0) lp_4_9c) 0.0)) (* motzkin_1517_4 (+ (* 1.0 lp_3_6c) 0.0)) (* motzkin_1517_5 (+ (* 1.0 lp_3_7c) 0.0))) 0.0) (or (< (+ (* motzkin_1517_1 (- 100000.0)) (* motzkin_1517_4 (+ (* 1.0 lp_3_6c) 0.0)) (* motzkin_1517_5 (+ (* 1.0 lp_3_7c) 0.0))) 0.0) (> motzkin_1517_3 0.0))))
(declare-fun motzkin_1518_0 () Real)
(declare-fun motzkin_1518_1 () Real)
(declare-fun motzkin_1518_2 () Real)
(declare-fun motzkin_1518_3 () Real)
(declare-fun motzkin_1518_4 () Real)
(declare-fun motzkin_1518_5 () Real)
(declare-fun motzkin_1519_0 () Real)
(declare-fun motzkin_1519_1 () Real)
(declare-fun motzkin_1519_2 () Real)
(declare-fun motzkin_1519_3 () Real)
(declare-fun motzkin_1519_4 () Real)
(declare-fun motzkin_1519_5 () Real)
(assert (and (>= motzkin_1518_0 0.0) (>= motzkin_1518_1 0.0) (>= motzkin_1518_2 0.0) (>= motzkin_1518_3 0.0) (>= motzkin_1518_4 0.0) (>= motzkin_1518_5 0.0) (= (+ (* motzkin_1518_0 (- 1.0)) motzkin_1518_1 (* motzkin_1518_3 (+ (* (- 1.0) lp_4_8_ULTIMATE.start_main_~i~4) 0.0))) 0.0) (= (+ motzkin_1518_0 (* motzkin_1518_1 (- 1.0)) (* motzkin_1518_2 (- 1.0)) (* motzkin_1518_4 (+ (* 1.0 lp_4_8_ULTIMATE.start_main_~i~4) 0.0)) (* motzkin_1518_5 (+ (* 1.0 lp_4_9_ULTIMATE.start_main_~i~4) 0.0))) 0.0) (<= (+ motzkin_1518_0 (* motzkin_1518_1 (- 1.0)) (* motzkin_1518_2 99999.0) (* motzkin_1518_3 (+ (* (- 1.0) lp_4_8c) 0.0)) (* motzkin_1518_4 (+ (* 1.0 lp_4_8c) 0.0)) (* motzkin_1518_5 (+ (* 1.0 lp_4_9c) 0.0))) 0.0) (or (< (+ motzkin_1518_0 (* motzkin_1518_1 (- 1.0)) (* motzkin_1518_2 99999.0) (* motzkin_1518_4 (+ (* 1.0 lp_4_8c) 0.0)) (* motzkin_1518_5 (+ (* 1.0 lp_4_9c) 0.0))) 0.0) (> motzkin_1518_3 0.0)) (>= motzkin_1519_0 0.0) (>= motzkin_1519_1 0.0) (>= motzkin_1519_2 0.0) (>= motzkin_1519_3 0.0) (>= motzkin_1519_4 0.0) (>= motzkin_1519_5 0.0) (= (+ (* motzkin_1519_0 (- 1.0)) motzkin_1519_1 (* motzkin_1519_3 (+ (* (- 1.0) lp_4_9_ULTIMATE.start_main_~i~4) 0.0))) 0.0) (= (+ motzkin_1519_0 (* motzkin_1519_1 (- 1.0)) (* motzkin_1519_2 (- 1.0)) (* motzkin_1519_4 (+ (* 1.0 lp_4_8_ULTIMATE.start_main_~i~4) 0.0)) (* motzkin_1519_5 (+ (* 1.0 lp_4_9_ULTIMATE.start_main_~i~4) 0.0))) 0.0) (<= (+ motzkin_1519_0 (* motzkin_1519_1 (- 1.0)) (* motzkin_1519_2 99999.0) (* motzkin_1519_3 (+ (* (- 1.0) lp_4_9c) 0.0)) (* motzkin_1519_4 (+ (* 1.0 lp_4_8c) 0.0)) (* motzkin_1519_5 (+ (* 1.0 lp_4_9c) 0.0))) 0.0) (or (< (+ motzkin_1519_0 (* motzkin_1519_1 (- 1.0)) (* motzkin_1519_2 99999.0) (* motzkin_1519_4 (+ (* 1.0 lp_4_8c) 0.0)) (* motzkin_1519_5 (+ (* 1.0 lp_4_9c) 0.0))) 0.0) (> motzkin_1519_3 0.0))))
(declare-fun motzkin_1520_0 () Real)
(declare-fun motzkin_1520_1 () Real)
(declare-fun motzkin_1520_2 () Real)
(declare-fun motzkin_1520_3 () Real)
(declare-fun motzkin_1520_4 () Real)
(declare-fun motzkin_1520_5 () Real)
(declare-fun motzkin_1521_0 () Real)
(declare-fun motzkin_1521_1 () Real)
(declare-fun motzkin_1521_2 () Real)
(declare-fun motzkin_1521_3 () Real)
(declare-fun motzkin_1521_4 () Real)
(declare-fun motzkin_1521_5 () Real)
(assert (and (>= motzkin_1520_0 0.0) (>= motzkin_1520_1 0.0) (>= motzkin_1520_2 0.0) (>= motzkin_1520_3 0.0) (>= motzkin_1520_4 0.0) (>= motzkin_1520_5 0.0) (= (+ motzkin_1520_0 (* motzkin_1520_4 (+ (* 1.0 lp_4_8_ULTIMATE.start_main_~i~4) 0.0)) (* motzkin_1520_5 (+ (* 1.0 lp_4_9_ULTIMATE.start_main_~i~4) 0.0))) 0.0) (= (+ motzkin_1520_1 (* motzkin_1520_2 (- 1.0)) (* motzkin_1520_3 (+ (* (- 1.0) lp_5_10_ULTIMATE.start_main_~i~4) 0.0))) 0.0) (<= (+ (* motzkin_1520_0 (- 100000.0)) (* motzkin_1520_3 (+ (* (- 1.0) lp_5_10c) 0.0)) (* motzkin_1520_4 (+ (* 1.0 lp_4_8c) 0.0)) (* motzkin_1520_5 (+ (* 1.0 lp_4_9c) 0.0))) 0.0) (or (< (+ (* motzkin_1520_0 (- 100000.0)) (* motzkin_1520_4 (+ (* 1.0 lp_4_8c) 0.0)) (* motzkin_1520_5 (+ (* 1.0 lp_4_9c) 0.0))) 0.0) (> motzkin_1520_3 0.0)) (>= motzkin_1521_0 0.0) (>= motzkin_1521_1 0.0) (>= motzkin_1521_2 0.0) (>= motzkin_1521_3 0.0) (>= motzkin_1521_4 0.0) (>= motzkin_1521_5 0.0) (= (+ motzkin_1521_0 (* motzkin_1521_4 (+ (* 1.0 lp_4_8_ULTIMATE.start_main_~i~4) 0.0)) (* motzkin_1521_5 (+ (* 1.0 lp_4_9_ULTIMATE.start_main_~i~4) 0.0))) 0.0) (= (+ motzkin_1521_1 (* motzkin_1521_2 (- 1.0)) (* motzkin_1521_3 (+ (* (- 1.0) lp_5_11_ULTIMATE.start_main_~i~4) 0.0))) 0.0) (<= (+ (* motzkin_1521_0 (- 100000.0)) (* motzkin_1521_3 (+ (* (- 1.0) lp_5_11c) 0.0)) (* motzkin_1521_4 (+ (* 1.0 lp_4_8c) 0.0)) (* motzkin_1521_5 (+ (* 1.0 lp_4_9c) 0.0))) 0.0) (or (< (+ (* motzkin_1521_0 (- 100000.0)) (* motzkin_1521_4 (+ (* 1.0 lp_4_8c) 0.0)) (* motzkin_1521_5 (+ (* 1.0 lp_4_9c) 0.0))) 0.0) (> motzkin_1521_3 0.0))))
(declare-fun motzkin_1522_0 () Real)
(declare-fun motzkin_1522_1 () Real)
(declare-fun motzkin_1522_2 () Real)
(declare-fun motzkin_1522_3 () Real)
(declare-fun motzkin_1522_4 () Real)
(declare-fun motzkin_1522_5 () Real)
(declare-fun motzkin_1523_0 () Real)
(declare-fun motzkin_1523_1 () Real)
(declare-fun motzkin_1523_2 () Real)
(declare-fun motzkin_1523_3 () Real)
(declare-fun motzkin_1523_4 () Real)
(declare-fun motzkin_1523_5 () Real)
(assert (and (>= motzkin_1522_0 0.0) (>= motzkin_1522_1 0.0) (>= motzkin_1522_2 0.0) (>= motzkin_1522_3 0.0) (>= motzkin_1522_4 0.0) (>= motzkin_1522_5 0.0) (= (+ motzkin_1522_0 (* motzkin_1522_1 (- 1.0)) (* motzkin_1522_3 (+ (* (- 1.0) lp_6_12_ULTIMATE.start_main_~i~4) 0.0))) 0.0) (= (+ motzkin_1522_2 (* motzkin_1522_4 (+ (* 1.0 lp_5_10_ULTIMATE.start_main_~i~4) 0.0)) (* motzkin_1522_5 (+ (* 1.0 lp_5_11_ULTIMATE.start_main_~i~4) 0.0))) 0.0) (<= (+ (* motzkin_1522_2 (- 100000.0)) (* motzkin_1522_3 (+ (* (- 1.0) lp_6_12c) 0.0)) (* motzkin_1522_4 (+ (* 1.0 lp_5_10c) 0.0)) (* motzkin_1522_5 (+ (* 1.0 lp_5_11c) 0.0))) 0.0) (or (< (+ (* motzkin_1522_2 (- 100000.0)) (* motzkin_1522_4 (+ (* 1.0 lp_5_10c) 0.0)) (* motzkin_1522_5 (+ (* 1.0 lp_5_11c) 0.0))) 0.0) (> motzkin_1522_3 0.0)) (>= motzkin_1523_0 0.0) (>= motzkin_1523_1 0.0) (>= motzkin_1523_2 0.0) (>= motzkin_1523_3 0.0) (>= motzkin_1523_4 0.0) (>= motzkin_1523_5 0.0) (= (+ motzkin_1523_0 (* motzkin_1523_1 (- 1.0)) (* motzkin_1523_3 (+ (* (- 1.0) lp_6_13_ULTIMATE.start_main_~i~4) 0.0))) 0.0) (= (+ motzkin_1523_2 (* motzkin_1523_4 (+ (* 1.0 lp_5_10_ULTIMATE.start_main_~i~4) 0.0)) (* motzkin_1523_5 (+ (* 1.0 lp_5_11_ULTIMATE.start_main_~i~4) 0.0))) 0.0) (<= (+ (* motzkin_1523_2 (- 100000.0)) (* motzkin_1523_3 (+ (* (- 1.0) lp_6_13c) 0.0)) (* motzkin_1523_4 (+ (* 1.0 lp_5_10c) 0.0)) (* motzkin_1523_5 (+ (* 1.0 lp_5_11c) 0.0))) 0.0) (or (< (+ (* motzkin_1523_2 (- 100000.0)) (* motzkin_1523_4 (+ (* 1.0 lp_5_10c) 0.0)) (* motzkin_1523_5 (+ (* 1.0 lp_5_11c) 0.0))) 0.0) (> motzkin_1523_3 0.0))))
(declare-fun motzkin_1524_0 () Real)
(declare-fun motzkin_1524_1 () Real)
(declare-fun motzkin_1524_2 () Real)
(declare-fun motzkin_1524_3 () Real)
(declare-fun motzkin_1524_4 () Real)
(declare-fun motzkin_1524_5 () Real)
(declare-fun motzkin_1525_0 () Real)
(declare-fun motzkin_1525_1 () Real)
(declare-fun motzkin_1525_2 () Real)
(declare-fun motzkin_1525_3 () Real)
(declare-fun motzkin_1525_4 () Real)
(declare-fun motzkin_1525_5 () Real)
(assert (and (>= motzkin_1524_0 0.0) (>= motzkin_1524_1 0.0) (>= motzkin_1524_2 0.0) (>= motzkin_1524_3 0.0) (>= motzkin_1524_4 0.0) (>= motzkin_1524_5 0.0) (= (+ (* motzkin_1524_0 (- 1.0)) motzkin_1524_2 (* motzkin_1524_3 (+ (* (- 1.0) lp_5_10_ULTIMATE.start_main_~i~4) 0.0))) 0.0) (= (+ motzkin_1524_0 (* motzkin_1524_1 (- 1.0)) (* motzkin_1524_2 (- 1.0)) (* motzkin_1524_4 (+ (* 1.0 lp_5_10_ULTIMATE.start_main_~i~4) 0.0)) (* motzkin_1524_5 (+ (* 1.0 lp_5_11_ULTIMATE.start_main_~i~4) 0.0))) 0.0) (<= (+ motzkin_1524_0 (* motzkin_1524_1 99999.0) (* motzkin_1524_2 (- 1.0)) (* motzkin_1524_3 (+ (* (- 1.0) lp_5_10c) 0.0)) (* motzkin_1524_4 (+ (* 1.0 lp_5_10c) 0.0)) (* motzkin_1524_5 (+ (* 1.0 lp_5_11c) 0.0))) 0.0) (or (< (+ motzkin_1524_0 (* motzkin_1524_1 99999.0) (* motzkin_1524_2 (- 1.0)) (* motzkin_1524_4 (+ (* 1.0 lp_5_10c) 0.0)) (* motzkin_1524_5 (+ (* 1.0 lp_5_11c) 0.0))) 0.0) (> motzkin_1524_3 0.0)) (>= motzkin_1525_0 0.0) (>= motzkin_1525_1 0.0) (>= motzkin_1525_2 0.0) (>= motzkin_1525_3 0.0) (>= motzkin_1525_4 0.0) (>= motzkin_1525_5 0.0) (= (+ (* motzkin_1525_0 (- 1.0)) motzkin_1525_2 (* motzkin_1525_3 (+ (* (- 1.0) lp_5_11_ULTIMATE.start_main_~i~4) 0.0))) 0.0) (= (+ motzkin_1525_0 (* motzkin_1525_1 (- 1.0)) (* motzkin_1525_2 (- 1.0)) (* motzkin_1525_4 (+ (* 1.0 lp_5_10_ULTIMATE.start_main_~i~4) 0.0)) (* motzkin_1525_5 (+ (* 1.0 lp_5_11_ULTIMATE.start_main_~i~4) 0.0))) 0.0) (<= (+ motzkin_1525_0 (* motzkin_1525_1 99999.0) (* motzkin_1525_2 (- 1.0)) (* motzkin_1525_3 (+ (* (- 1.0) lp_5_11c) 0.0)) (* motzkin_1525_4 (+ (* 1.0 lp_5_10c) 0.0)) (* motzkin_1525_5 (+ (* 1.0 lp_5_11c) 0.0))) 0.0) (or (< (+ motzkin_1525_0 (* motzkin_1525_1 99999.0) (* motzkin_1525_2 (- 1.0)) (* motzkin_1525_4 (+ (* 1.0 lp_5_10c) 0.0)) (* motzkin_1525_5 (+ (* 1.0 lp_5_11c) 0.0))) 0.0) (> motzkin_1525_3 0.0))))
(declare-fun motzkin_1526_0 () Real)
(declare-fun motzkin_1526_1 () Real)
(declare-fun motzkin_1526_2 () Real)
(declare-fun motzkin_1526_3 () Real)
(declare-fun motzkin_1526_4 () Real)
(declare-fun motzkin_1526_5 () Real)
(declare-fun motzkin_1527_0 () Real)
(declare-fun motzkin_1527_1 () Real)
(declare-fun motzkin_1527_2 () Real)
(declare-fun motzkin_1527_3 () Real)
(declare-fun motzkin_1527_4 () Real)
(declare-fun motzkin_1527_5 () Real)
(assert (and (>= motzkin_1526_0 0.0) (>= motzkin_1526_1 0.0) (>= motzkin_1526_2 0.0) (>= motzkin_1526_3 0.0) (>= motzkin_1526_4 0.0) (>= motzkin_1526_5 0.0) (= (+ (* motzkin_1526_0 (- 1.0)) motzkin_1526_1 (* motzkin_1526_2 (- 1.0)) (* motzkin_1526_4 (+ (* 1.0 lp_6_12_ULTIMATE.start_main_~i~4) 0.0)) (* motzkin_1526_5 (+ (* 1.0 lp_6_13_ULTIMATE.start_main_~i~4) 0.0))) 0.0) (= (+ (* motzkin_1526_1 (- 1.0)) motzkin_1526_2 (* motzkin_1526_3 (+ (* (- 1.0) lp_6_12_ULTIMATE.start_main_~i~4) 0.0))) 0.0) (<= (+ (* motzkin_1526_0 99999.0) motzkin_1526_1 (* motzkin_1526_2 (- 1.0)) (* motzkin_1526_3 (+ (* (- 1.0) lp_6_12c) 0.0)) (* motzkin_1526_4 (+ (* 1.0 lp_6_12c) 0.0)) (* motzkin_1526_5 (+ (* 1.0 lp_6_13c) 0.0))) 0.0) (or (< (+ (* motzkin_1526_0 99999.0) motzkin_1526_1 (* motzkin_1526_2 (- 1.0)) (* motzkin_1526_4 (+ (* 1.0 lp_6_12c) 0.0)) (* motzkin_1526_5 (+ (* 1.0 lp_6_13c) 0.0))) 0.0) (> motzkin_1526_3 0.0)) (>= motzkin_1527_0 0.0) (>= motzkin_1527_1 0.0) (>= motzkin_1527_2 0.0) (>= motzkin_1527_3 0.0) (>= motzkin_1527_4 0.0) (>= motzkin_1527_5 0.0) (= (+ (* motzkin_1527_0 (- 1.0)) motzkin_1527_1 (* motzkin_1527_2 (- 1.0)) (* motzkin_1527_4 (+ (* 1.0 lp_6_12_ULTIMATE.start_main_~i~4) 0.0)) (* motzkin_1527_5 (+ (* 1.0 lp_6_13_ULTIMATE.start_main_~i~4) 0.0))) 0.0) (= (+ (* motzkin_1527_1 (- 1.0)) motzkin_1527_2 (* motzkin_1527_3 (+ (* (- 1.0) lp_6_13_ULTIMATE.start_main_~i~4) 0.0))) 0.0) (<= (+ (* motzkin_1527_0 99999.0) motzkin_1527_1 (* motzkin_1527_2 (- 1.0)) (* motzkin_1527_3 (+ (* (- 1.0) lp_6_13c) 0.0)) (* motzkin_1527_4 (+ (* 1.0 lp_6_12c) 0.0)) (* motzkin_1527_5 (+ (* 1.0 lp_6_13c) 0.0))) 0.0) (or (< (+ (* motzkin_1527_0 99999.0) motzkin_1527_1 (* motzkin_1527_2 (- 1.0)) (* motzkin_1527_4 (+ (* 1.0 lp_6_12c) 0.0)) (* motzkin_1527_5 (+ (* 1.0 lp_6_13c) 0.0))) 0.0) (> motzkin_1527_3 0.0))))
(declare-fun motzkin_1528_0 () Real)
(declare-fun motzkin_1528_1 () Real)
(declare-fun motzkin_1528_2 () Real)
(declare-fun motzkin_1528_3 () Real)
(declare-fun motzkin_1528_4 () Real)
(declare-fun motzkin_1528_5 () Real)
(declare-fun motzkin_1528_6 () Real)
(declare-fun motzkin_1528_7 () Real)
(declare-fun motzkin_1528_8 () Real)
(declare-fun motzkin_1528_9 () Real)
(declare-fun motzkin_1529_0 () Real)
(declare-fun motzkin_1529_1 () Real)
(declare-fun motzkin_1529_2 () Real)
(declare-fun motzkin_1529_3 () Real)
(declare-fun motzkin_1529_4 () Real)
(declare-fun motzkin_1529_5 () Real)
(declare-fun motzkin_1529_6 () Real)
(declare-fun motzkin_1529_7 () Real)
(declare-fun motzkin_1529_8 () Real)
(declare-fun motzkin_1529_9 () Real)
(assert (and (>= motzkin_1528_0 0.0) (>= motzkin_1528_1 0.0) (>= motzkin_1528_2 0.0) (>= motzkin_1528_3 0.0) (>= motzkin_1528_4 0.0) (>= motzkin_1528_5 0.0) (>= motzkin_1528_6 0.0) (>= motzkin_1528_7 0.0) (>= motzkin_1528_8 0.0) (>= motzkin_1528_9 0.0) (= (+ (* motzkin_1528_0 (- 1.0)) motzkin_1528_1 (* motzkin_1528_2 (- 1.0)) motzkin_1528_5) 0.0) (= (+ motzkin_1528_0 (* motzkin_1528_5 (- 1.0))) 0.0) (= (+ motzkin_1528_3 (* motzkin_1528_8 (+ (* 1.0 lp_6_12_ULTIMATE.start_main_~i~4) 0.0)) (* motzkin_1528_9 (+ (* 1.0 lp_6_13_ULTIMATE.start_main_~i~4) 0.0))) 0.0) (= (+ motzkin_1528_4 (* motzkin_1528_7 (- 1.0))) 0.0) (= (* motzkin_1528_6 (- 1.0)) 0.0) (= motzkin_1528_6 0.0) (<= (+ (* motzkin_1528_3 (- 100000.0)) (* motzkin_1528_6 (- 1.0)) (* motzkin_1528_8 (+ (* 1.0 lp_6_12c) 0.0)) (* motzkin_1528_9 (+ (* 1.0 lp_6_13c) 0.0))) 0.0) (or (< (+ (* motzkin_1528_3 (- 100000.0)) (* motzkin_1528_6 (- 1.0)) (* motzkin_1528_8 (+ (* 1.0 lp_6_12c) 0.0)) (* motzkin_1528_9 (+ (* 1.0 lp_6_13c) 0.0))) 0.0) (> 0.0 0.0)) (>= motzkin_1529_0 0.0) (>= motzkin_1529_1 0.0) (>= motzkin_1529_2 0.0) (>= motzkin_1529_3 0.0) (>= motzkin_1529_4 0.0) (>= motzkin_1529_5 0.0) (>= motzkin_1529_6 0.0) (>= motzkin_1529_7 0.0) (>= motzkin_1529_8 0.0) (>= motzkin_1529_9 0.0) (= (+ (* motzkin_1529_0 (- 1.0)) motzkin_1529_1 (* motzkin_1529_3 (- 1.0)) motzkin_1529_6) 0.0) (= (+ motzkin_1529_0 (* motzkin_1529_6 (- 1.0))) 0.0) (= motzkin_1529_2 0.0) (= (* motzkin_1529_2 (- 1.0)) 0.0) (= (+ motzkin_1529_4 (* motzkin_1529_8 (+ (* 1.0 lp_6_12_ULTIMATE.start_main_~i~4) 0.0)) (* motzkin_1529_9 (+ (* 1.0 lp_6_13_ULTIMATE.start_main_~i~4) 0.0))) 0.0) (= (+ motzkin_1529_5 (* motzkin_1529_7 (- 1.0))) 0.0) (<= (+ (* motzkin_1529_2 (- 1.0)) (* motzkin_1529_4 (- 100000.0)) (* motzkin_1529_8 (+ (* 1.0 lp_6_12c) 0.0)) (* motzkin_1529_9 (+ (* 1.0 lp_6_13c) 0.0))) 0.0) (or (< (+ (* motzkin_1529_2 (- 1.0)) (* motzkin_1529_4 (- 100000.0)) (* motzkin_1529_8 (+ (* 1.0 lp_6_12c) 0.0)) (* motzkin_1529_9 (+ (* 1.0 lp_6_13c) 0.0))) 0.0) (> 0.0 0.0))))
(check-sat)
(exit)
