z3_origin/standard_copy7_ground.i_3_2_2.bpl_3.txt
timeout
(:max-memory   155.64
 :memory       155.64
 :num-allocs   83818423904.00
 :rlimit-count 4305655105.00
 :time         1199.99
 :total-time   1197.18)
